\ Model CASCADING_ILP
\ LP format - for model browsing. Use MPS format to capture full model detail.
Minimize
  a0 + a1 + a2 + a3 + a4 + a5 + a6 + a7 + a8 + a9 + a10 + a11 + a12
Subject To
 visible_implies_known_0: a0 + r0 >= 1
 visible_implies_known_1: a1 + r1 >= 1
 visible_implies_known_2: a2 + r2 >= 1
 visible_implies_known_3: a3 + r3 >= 1
 visible_implies_known_4: a4 + r4 >= 1
 visible_implies_known_5: a5 + r5 >= 1
 visible_implies_known_6: a6 + r6 >= 1
 visible_implies_known_7: a7 + r7 >= 1
 visible_implies_known_8: a8 + r8 >= 1
 visible_implies_known_9: a9 + r9 >= 1
 visible_implies_known_10: a10 + r10 >= 1
 visible_implies_known_11: a11 + r11 >= 1
 visible_implies_known_12: a12 + r12 >= 1
 target_not_inferable: r0 = 0
 closure_e0_h0: r0 - r1 - r2 >= -1
 closure_e0_h1: - r0 + r1 - r2 >= -1
 closure_e0_h2: - r0 - r1 + r2 >= -1
 closure_e1_h3: - r0 + r3 - r4 >= -1
 closure_e1_h4: - r0 - r3 + r4 >= -1
 closure_e1_h0: r0 - r3 - r4 >= -1
 closure_e2_h0: r0 - r5 - r6 >= -1
 closure_e2_h6: - r0 - r5 + r6 >= -1
 closure_e2_h5: - r0 + r5 - r6 >= -1
 closure_e3_h3: - r0 + r3 - r5 >= -1
 closure_e3_h0: r0 - r3 - r5 >= -1
 closure_e3_h5: - r0 - r3 + r5 >= -1
 closure_e4_h7: - r0 + r7 >= 0
 closure_e4_h0: r0 - r7 >= 0
 closure_e5_h4: - r0 + r4 - r5 >= -1
 closure_e5_h0: r0 - r4 - r5 >= -1
 closure_e5_h5: - r0 - r4 + r5 >= -1
 closure_e6_h7: - r1 - r2 + r7 >= -1
 closure_e6_h1: r1 - r2 - r7 >= -1
 closure_e6_h2: - r1 + r2 - r7 >= -1
 closure_e7_h7: - r1 - r5 + r7 >= -1
 closure_e7_h1: r1 - r5 - r7 >= -1
 closure_e7_h5: - r1 + r5 - r7 >= -1
 closure_e8_h8: - r1 - r2 + r8 >= -1
 closure_e8_h1: r1 - r2 - r8 >= -1
 closure_e8_h2: - r1 + r2 - r8 >= -1
 closure_e9_h9: - r1 - r6 + r9 >= -1
 closure_e9_h6: - r1 + r6 - r9 >= -1
 closure_e9_h1: r1 - r6 - r9 >= -1
 closure_e10_h4: - r1 - r2 + r4 >= -1
 closure_e10_h1: r1 - r2 - r4 >= -1
 closure_e10_h2: - r1 + r2 - r4 >= -1
 closure_e11_h3: - r1 - r2 + r3 >= -1
 closure_e11_h1: r1 - r2 - r3 >= -1
 closure_e11_h2: - r1 + r2 - r3 >= -1
 closure_e12_h10: - r1 - r2 + r10 >= -1
 closure_e12_h1: r1 - r2 - r10 >= -1
 closure_e12_h2: - r1 + r2 - r10 >= -1
 closure_e13_h10: - r1 - r9 + r10 >= -1
 closure_e13_h9: - r1 + r9 - r10 >= -1
 closure_e13_h1: r1 - r9 - r10 >= -1
 closure_e14_h9: - r1 - r5 + r9 >= -1
 closure_e14_h1: r1 - r5 - r9 >= -1
 closure_e14_h5: - r1 + r5 - r9 >= -1
 closure_e15_h4: - r1 + r4 - r8 >= -1
 closure_e15_h8: - r1 - r4 + r8 >= -1
 closure_e15_h1: r1 - r4 - r8 >= -1
 closure_e16_h1: r1 - r2 - r5 >= -1
 closure_e16_h2: - r1 + r2 - r5 >= -1
 closure_e16_h5: - r1 - r2 + r5 >= -1
 closure_e17_h9: - r1 - r8 + r9 >= -1
 closure_e17_h8: - r1 + r8 - r9 >= -1
 closure_e17_h1: r1 - r8 - r9 >= -1
 closure_e18_h9: - r2 - r5 + r9 >= -1
 closure_e18_h2: r2 - r5 - r9 >= -1
 closure_e18_h5: - r2 + r5 - r9 >= -1
 closure_e19_h9: - r2 - r6 + r9 >= -1
 closure_e19_h6: - r2 + r6 - r9 >= -1
 closure_e19_h2: r2 - r6 - r9 >= -1
 closure_e20_h10: - r2 - r9 + r10 >= -1
 closure_e20_h9: - r2 + r9 - r10 >= -1
 closure_e20_h2: r2 - r9 - r10 >= -1
 closure_e21_h9: - r2 - r4 + r9 >= -1
 closure_e21_h4: - r2 + r4 - r9 >= -1
 closure_e21_h2: r2 - r4 - r9 >= -1
 closure_e22_h3: - r2 + r3 - r9 >= -1
 closure_e22_h9: - r2 - r3 + r9 >= -1
 closure_e22_h2: r2 - r3 - r9 >= -1
 closure_e23_h9: - r2 - r8 + r9 >= -1
 closure_e23_h8: - r2 + r8 - r9 >= -1
 closure_e23_h2: r2 - r8 - r9 >= -1
 closure_e24_h3: r3 - r4 - r7 >= -1
 closure_e24_h4: - r3 + r4 - r7 >= -1
 closure_e24_h7: - r3 - r4 + r7 >= -1
 closure_e25_h3: r3 - r4 - r5 >= -1
 closure_e25_h4: - r3 + r4 - r5 >= -1
 closure_e25_h5: - r3 - r4 + r5 >= -1
 closure_e26_h11: - r3 - r8 + r11 >= -1
 closure_e26_h3: r3 - r8 - r11 >= -1
 closure_e26_h8: - r3 + r8 - r11 >= -1
 closure_e27_h3: r3 - r5 - r7 >= -1
 closure_e27_h7: - r3 - r5 + r7 >= -1
 closure_e27_h5: - r3 + r5 - r7 >= -1
 closure_e28_h4: r4 - r8 - r12 >= -1
 closure_e28_h8: - r4 + r8 - r12 >= -1
 closure_e28_h12: - r4 - r8 + r12 >= -1
 closure_e29_h7: - r4 + r7 - r8 >= -1
 closure_e29_h4: r4 - r7 - r8 >= -1
 closure_e29_h8: - r4 - r7 + r8 >= -1
 closure_e30_h5: - r4 + r5 - r12 >= -1
 closure_e30_h4: r4 - r5 - r12 >= -1
 closure_e30_h12: - r4 - r5 + r12 >= -1
 closure_e31_h4: r4 - r5 - r7 >= -1
 closure_e31_h7: - r4 - r5 + r7 >= -1
 closure_e31_h5: - r4 + r5 - r7 >= -1
 closure_e32_h11: - r4 - r5 + r11 >= -1
 closure_e32_h4: r4 - r5 - r11 >= -1
 closure_e32_h5: - r4 + r5 - r11 >= -1
 closure_e33_h7: - r5 - r6 + r7 >= -1
 closure_e33_h6: - r5 + r6 - r7 >= -1
 closure_e33_h5: r5 - r6 - r7 >= -1
 closure_e34_h11: - r5 - r6 + r11 >= -1
 closure_e34_h6: - r5 + r6 - r11 >= -1
 closure_e34_h5: r5 - r6 - r11 >= -1
 closure_e35_h5: r5 - r6 - r12 >= -1
 closure_e35_h6: - r5 + r6 - r12 >= -1
 closure_e35_h12: - r5 - r6 + r12 >= -1
 closure_e36_h7: - r6 + r7 - r8 >= -1
 closure_e36_h8: - r6 - r7 + r8 >= -1
 closure_e36_h6: r6 - r7 - r8 >= -1
 closure_e37_h8: - r6 + r8 - r12 >= -1
 closure_e37_h6: r6 - r8 - r12 >= -1
 closure_e37_h12: - r6 - r8 + r12 >= -1
 closure_e38_h8: - r5 + r8 >= 0
 closure_e38_h5: r5 - r8 >= 0
 closure_e39_h5: r5 - r7 - r12 >= -1
 closure_e39_h7: - r5 + r7 - r12 >= -1
 closure_e39_h12: - r5 - r7 + r12 >= -1
 closure_e40_h11: - r5 - r7 + r11 >= -1
 closure_e40_h7: - r5 + r7 - r11 >= -1
 closure_e40_h5: r5 - r7 - r11 >= -1
 closure_e41_h11: - r5 + r11 - r12 >= -1
 closure_e41_h5: r5 - r11 - r12 >= -1
 closure_e41_h12: - r5 - r11 + r12 >= -1
 closure_e42_h7: r7 - r8 - r12 >= -1
 closure_e42_h8: - r7 + r8 - r12 >= -1
 closure_e42_h12: - r7 - r8 + r12 >= -1
Bounds
 a0 = 1
Binaries
 a0 r0 a1 r1 a2 r2 a3 r3 a4 r4 a5 r5 a6 r6 a7 r7 a8 r8 a9 r9 a10 r10 a11
 r11 a12 r12
End
